set J := 0  1  2  3  4;

param P := 0  0  1  150  2  263  3  312  4  329;

param Q := 0  7.000714249274855  1  6.754987554058907  2  6.421392983251923  3  5.964500884452828  4  5.862322933365198;

param W := 6;
